1 -1 2 0
1 -1 3 0
1 4 -5 0
1 6 -4 0
1 6 7 0
1 -8 -9 0
1 2 10 0
1 11 -4 0
1 11 -1 0
1 12 -8 0
1 7 13 0
1 14 5 0
1 15 -16 0
1 -15 -17 0
1 -15 18 0
1 19 14 0
1 -3 18 0
1 5 -20 0
1 -21 -10 0
1 16 -13 0
1 -22 16 0
1 -22 23 0
1 24 -7 0
1 -13 25 0
1 26 27 0
1 28 29 0
1 -28 30 0
1 29 -28 0
1 29 -31 0
1 -10 -5 0
1 -10 32 0
1 10 33 0
1 -10 -2 0
1 -9 -31 0
1 -9 -32 0
1 -9 34 0
1 20 -5 0
1 20 35 0
1 20 3 0
1 -33 -10 0
1 34 -10 0
1 32 -20 0
1 32 36 0
1 -37 19 0
1 -37 18 0
1 -18 -38 0
1 18 19 0
1 -18 -39 0
1 -18 34 0
1 -40 41 0
1 42 34 0
1 43 35 0
1 43 42 0
1 -38 -40 0
1 -38 -43 0
1 38 8 0
